
%FILE DATA:	Soccer Computational Problem for MiniZinc Models	%
%AUTHOR:	Jack Wall	%
%CONTACT:  	116397063@umail.ucc.ie			%
%LAST UPDATE:	03/03/2020, 16:02:56						%
%DESCRIPTION: 	40 games played with 16 games left				%


n=8; %number of teams

%Games to play
games=[|2,6|1,4|4,1|8,4|3,8|8,7|5,3|8,3|5,8|7,2|2,5|4,8|6,2|3,6|6,1|5,2|];

%Initial points
iPoints=[13,20,14,18,6,12,18,10];

%POSITION CONSTRAINTS
% [|teamID, operator, position|...]
% operators index:
%  1 for =  operator
%  2 for >  operator
%  3 for >= operator
%  4 for <  operator
%  5 for <= operator
positionConstraints=[|2,5,1|4,5,2|7,2,2|];